p edge 50 50
colours 3
e 42 46
e 18 40
e 38 45
e 19 29
e 15 26
e 8 28
e 25 44
e 2 5
e 19 23
e 22 41
e 7 15
e 19 25
e 20 44
e 5 6
e 21 29
e 8 48
e 4 11
e 5 44
e 4 26
e 7 47
e 15 45
e 22 30
e 28 49
e 6 11
e 17 48
e 2 43
e 16 45
e 24 47
e 4 12
e 21 46
e 8 30
e 30 44
e 49 50
e 8 17
e 20 22
e 15 35
e 25 33
e 4 47
e 20 45
e 12 42
e 3 20
e 14 48
e 1 15
e 2 20
e 5 10
e 19 20
e 35 51
e 17 35
e 6 33
e 9 25
